data/solutions/recovery/degenerate/intermediate/binding/degenerate_intermediate_instance21/102.sol
Elapsed time: 0.03
Upper bound: 65701999.0
Planning weighted value: 2.14179168541e+11
C[0]=65701999.0
C[1]=50251844.0
C[2]=49792490.0
C[3]=31575298.0
C[4]=22552059.0
C[5]=15712191.0
C[6]=15292662.0
C[7]=11814013.0
C[8]=10475314.0
C[9]=7830676.0
C[10]=0.0
C[11]=0.0
y[0]=1
y[1]=1
y[2]=0
y[3]=7
y[4]=6
y[5]=5
y[6]=0
y[7]=9
y[8]=4
y[9]=1
y[10]=2
y[11]=3
y[12]=9
y[13]=7
y[14]=0
y[15]=0
y[16]=1
y[17]=7
y[18]=4
y[19]=8
y[20]=2
y[21]=2
y[22]=1
y[23]=8
y[24]=0
y[25]=1
y[26]=7
y[27]=0
y[28]=1
y[29]=3
y[30]=0
y[31]=2
y[32]=0
y[33]=1
y[34]=1
y[35]=4
y[36]=2
y[37]=3
y[38]=0
y[39]=8
y[40]=0
y[41]=1
y[42]=3
y[43]=7
y[44]=0
y[45]=4
y[46]=2
y[47]=2
y[48]=9
y[49]=1
y[50]=2
y[51]=8
y[52]=0
y[53]=0
y[54]=2
y[55]=1
y[56]=0
y[57]=2
y[58]=1
y[59]=0
y[60]=1
y[61]=5
y[62]=7
y[63]=6
y[64]=6
