data/solutions/recovery/degenerate/intermediate/binding/degenerate_intermediate_instance21/102.log

Log started (V12.6.3.0) Sun Apr 22 12:29:19 2018

New value for default parallel thread count: 1

Problem '/tmp/tmp8KrMIW.pyomo.lp' read.
Read time = 0.01 sec. (0.59 ticks)

Problem name         : /tmp/tmp8KrMIW.pyomo.lp
Objective sense      : Minimize
Variables            :     794  [Nneg: 1,  Binary: 780,  General Integer: 13]
Objective nonzeros   :       1
Linear constraints   :     157  [Less: 77,  Equal: 80]
  Nonzeros           :   42446
  RHS nonzeros       :      66

Variables            : Min LB: 0.000000         Max UB: 1.000000       
Objective nonzeros   : Min   : 1.000000         Max   : 1.000000       
Linear constraints   :
  Nonzeros           : Min   : 1.000000         Max   : 8298339.       
  RHS nonzeros       : Min   : 1.000000         Max   : 1.000000       
Tried aggregator 2 times.
MIP Presolve eliminated 146 rows and 783 columns.
Aggregator did 10 substitutions.
Reduced MIP has 1 rows, 1 columns, and 1 nonzeros.
Reduced MIP has 0 binaries, 1 generals, 0 SOSs, and 0 indicators.
Presolve time = 0.00 sec. (2.98 ticks)
Found incumbent of value 6.5701999e+07 after 0.00 sec. (4.00 ticks)

Root node processing (before b&c):
  Real time             =    0.00 sec. (4.03 ticks)
Sequential b&c:
  Real time             =    0.00 sec. (0.00 ticks)
                          ------------
Total (root+branch&cut) =    0.00 sec. (4.03 ticks)

Solution pool: 1 solution saved.

MIP - Integer optimal solution:  Objective =  6.5701999000e+07
Solution time =    0.01 sec.  Iterations = 0  Nodes = 0 (1)
Deterministic time = 4.03 ticks  (806.10 ticks/sec)


Incumbent solution written to file '/tmp/tmpgEB4xn.cplex.sol'.
